unsat
(define-fun inv ((x Int) (y Int) (l Int)) Bool (let ((_let_1 (* 1 l))) (or (<= (+ (* (- 1) y) (* 1 x)) (- 1)) (= (+ _let_1 _let_1) 2))))
34.23user 0.06system 0:34.31elapsed 99%CPU (0avgtext+0avgdata 104036maxresident)k
8inputs+8outputs (0major+21720minor)pagefaults 0swaps
